100
32
22
24
5
21
30
18
4
8
24
27
9
13
11
23
3
13
10
1
4
12
11
2
16
11
11
16
1
4
3
1
1
1
2
15
3
1
10
14
10
1
3
4
5
2
11
14
24
2
17
2
19
1
1
2
1
1
18
9
7
5
18
16
25
19
15
1
19
3
19
6
11
1
3
17
17
7
2
3
4
4
7
3
3
2
2
2
8
1
5
2
21
1
5
7
1
14
18
4
17
2